Welcome to the CBC MILP Solver 
Version: 2.10.10 
Build Date: Apr 19 2023 

command line - cbc /tmp/c707d19765b94bebaa57807756e59bbe-pulp.mps max sec 15 timeMode elapsed branch printingOptions all solution /tmp/c707d19765b94bebaa57807756e59bbe-pulp.sol (default strategy 1)
At line 2 NAME          MODEL
At line 3 ROWS
At line 29994 COLUMNS
At line 110938 RHS
At line 140928 BOUNDS
At line 149529 ENDATA
Problem MODEL has 29989 rows, 8600 columns and 79855 elements
Coin0008I MODEL read with 0 errors
seconds was changed from 1e+100 to 15
Option for timeMode changed from cpu to elapsed
Presolve 5978 (-24011) rows, 2555 (-6045) columns and 16289 (-63566) elements
Perturbing problem by 0.001% of 1 - largest nonzero change 0.00097359812 ( 0.19471962%) - largest zero change 0.00097258901
0  Obj 2 Primal inf 129.79163 (85) Dual inf 36.145063 (60)
194  Obj 14.9512 Primal inf 269.77671 (277)
388  Obj 14.943429 Primal inf 298.07933 (314)
582  Obj 14.936243 Primal inf 193.7556 (247)
776  Obj 14.933613 Primal inf 251.17263 (260)
970  Obj 14.929734 Primal inf 614.11303 (283)
1164  Obj 14.925387 Primal inf 135.39072 (182)
1358  Obj 14.920986 Primal inf 31.409658 (59)
1454  Obj 14.920492
Optimal - objective value 15
After Postsolve, objective 15, infeasibilities - dual 0 (0), primal 0 (0)
Optimal objective 15 - 1454 iterations time 0.062, Presolve 0.03
Option for printingOptions changed from normal to all
Total time (CPU seconds):       0.38   (Wallclock seconds):       0.19

Welcome to the CBC MILP Solver 
Version: 2.10.10 
Build Date: Apr 19 2023 

command line - cbc /tmp/5aa857512af24c21a014de9108c2454f-pulp.mps max sec 15 timeMode elapsed branch printingOptions all solution /tmp/5aa857512af24c21a014de9108c2454f-pulp.sol (default strategy 1)
At line 2 NAME          MODEL
At line 3 ROWS
At line 29994 COLUMNS
At line 128138 RHS
At line 158128 BOUNDS
At line 166729 ENDATA
Problem MODEL has 29989 rows, 8600 columns and 79855 elements
Coin0008I MODEL read with 0 errors
seconds was changed from 1e+100 to 15
Option for timeMode changed from cpu to elapsed
Continuous objective value is 15 - 0.05 seconds
Cgl0002I 3750 variables fixed
Cgl0003I 582 fixed, 0 tightened bounds, 4316 strengthened rows, 1080 substitutions
Cgl0003I 4 fixed, 0 tightened bounds, 1425 strengthened rows, 61 substitutions
Cgl0003I 0 fixed, 0 tightened bounds, 1505 strengthened rows, 61 substitutions
Cgl0003I 0 fixed, 0 tightened bounds, 2268 strengthened rows, 0 substitutions
Cgl0003I 32 fixed, 0 tightened bounds, 2094 strengthened rows, 286 substitutions
Cgl0003I 0 fixed, 0 tightened bounds, 1167 strengthened rows, 2 substitutions
Cgl0003I 7 fixed, 0 tightened bounds, 1220 strengthened rows, 38 substitutions
Cgl0003I 6 fixed, 0 tightened bounds, 395 strengthened rows, 0 substitutions
Cgl0003I 0 fixed, 0 tightened bounds, 187 strengthened rows, 0 substitutions
Cgl0003I 1 fixed, 0 tightened bounds, 381 strengthened rows, 52 substitutions
Cgl0003I 0 fixed, 0 tightened bounds, 44 strengthened rows, 0 substitutions
Cgl0003I 7 fixed, 0 tightened bounds, 147 strengthened rows, 12 substitutions
Cgl0003I 0 fixed, 0 tightened bounds, 23 strengthened rows, 0 substitutions
Cgl0003I 0 fixed, 0 tightened bounds, 86 strengthened rows, 0 substitutions
Cgl0003I 2 fixed, 0 tightened bounds, 67 strengthened rows, 184 substitutions
Cgl0003I 0 fixed, 0 tightened bounds, 5 strengthened rows, 4 substitutions
Cgl0003I 0 fixed, 0 tightened bounds, 74 strengthened rows, 12 substitutions
Cgl0004I processed model has 2409 rows, 1740 columns (1740 integer (1714 of which binary)) and 13253 elements
Cbc0038I Initial state - 14 integers unsatisfied sum - 4.66667
Cbc0038I Pass   1: suminf.    0.00000 (0) obj. 15 iterations 363
Cbc0038I Solution found of 15
Cbc0038I Cleaned solution of 15
Cbc0038I Before mini branch and bound, 1722 integers at bound fixed and 0 continuous
Cbc0038I Mini branch and bound did not improve solution (0.61 seconds)
Cbc0038I After 0.61 seconds - Feasibility pump exiting with objective of 15 - took 0.02 seconds
Cbc0012I Integer solution of 15 found by feasibility pump after 0 iterations and 0 nodes (0.61 seconds)
Cbc0001I Search completed - best objective 14.9999999999997, took 0 iterations and 0 nodes (0.62 seconds)
Cbc0035I Maximum depth 0, 0 variables fixed on reduced cost
Cuts at root node changed objective from 15 to 15
Probing was tried 0 times and created 0 cuts of which 0 were active after adding rounds of cuts (0.000 seconds)
Gomory was tried 0 times and created 0 cuts of which 0 were active after adding rounds of cuts (0.000 seconds)
Knapsack was tried 0 times and created 0 cuts of which 0 were active after adding rounds of cuts (0.000 seconds)
Clique was tried 0 times and created 0 cuts of which 0 were active after adding rounds of cuts (0.000 seconds)
MixedIntegerRounding2 was tried 0 times and created 0 cuts of which 0 were active after adding rounds of cuts (0.000 seconds)
FlowCover was tried 0 times and created 0 cuts of which 0 were active after adding rounds of cuts (0.000 seconds)
TwoMirCuts was tried 0 times and created 0 cuts of which 0 were active after adding rounds of cuts (0.000 seconds)
ZeroHalf was tried 0 times and created 0 cuts of which 0 were active after adding rounds of cuts (0.000 seconds)

Result - Optimal solution found

Objective value:                15.00000000
Enumerated nodes:               0
Total iterations:               0
Time (CPU seconds):             0.64
Time (Wallclock seconds):       0.66

Option for printingOptions changed from normal to all
Total time (CPU seconds):       0.95   (Wallclock seconds):       0.80

